Version identifier: 22.1.1.0 | 2022-11-28 | 9160aff4d
CPXPARAM_ClockType                               1
CPXPARAM_Read_DataCheck                          1
CPXPARAM_Threads                                 1
CPXPARAM_TimeLimit                               7200
CPXPARAM_MIP_Tolerances_AbsMIPGap                0
CPXPARAM_MIP_Tolerances_MIPGap                   0
CPXPARAM_MIP_Tolerances_Integrality              0
Found incumbent of value 0.000000 after 0.00 sec. (0.23 ticks)
Tried aggregator 2 times.
MIP Presolve eliminated 317 rows and 1 columns.
MIP Presolve modified 162 coefficients.
Aggregator did 150 substitutions.
Reduced MIP has 1372 rows, 749 columns, and 4046 nonzeros.
Reduced MIP has 749 binaries, 0 generals, 0 SOSs, and 0 indicators.
Presolve time = 0.01 sec. (4.79 ticks)
Probing time = 0.00 sec. (0.82 ticks)
Tried aggregator 1 time.
Detecting symmetries...
MIP Presolve eliminated 101 rows and 3 columns.
MIP Presolve modified 2 coefficients.
Reduced MIP has 1271 rows, 746 columns, and 3739 nonzeros.
Reduced MIP has 746 binaries, 0 generals, 0 SOSs, and 0 indicators.
Presolve time = 0.01 sec. (4.04 ticks)
Probing time = 0.00 sec. (0.73 ticks)
Clique table members: 1162.
MIP emphasis: balance optimality and feasibility.
MIP search method: dynamic search.
Parallel mode: none, using 1 thread.
Root relaxation solution time = 0.01 sec. (9.73 ticks)

        Nodes                                         Cuts/
   Node  Left     Objective  IInf  Best Integer    Best Bound    ItCnt     Gap

*     0+    0                            0.0000      150.0000              --- 
      0     0      150.0000   242        0.0000      150.0000      281     --- 
      0     0      141.0000   258        0.0000     Cuts: 281      748     --- 
      0     0      116.0000   284        0.0000     Cuts: 224     1093     --- 
      0     0      100.0000   376        0.0000     Cuts: 105     1387     --- 
      0     0      100.0000   455        0.0000 ZeroHalf: 108     1479     --- 
      0     0      100.0000   420        0.0000       Cuts: 5     1523     --- 
Detecting symmetries...
      0     0      100.0000   463        0.0000     Cuts: 136     1650     --- 
*     0+    0                            4.0000      100.0000              --- 
*     0+    0                            6.0000      100.0000              --- 
      0     0        cutoff              6.0000      100.0000     1650     --- 
Detecting symmetries...
      0     2      100.0000   359        6.0000      100.0000     1650     --- 
Elapsed time = 0.40 sec. (260.73 ticks, tree = 0.01 MB, solutions = 3)
*    10     1      integral     0      100.0000      100.0000     2921    0.00%

GUB cover cuts applied:  4
Cover cuts applied:  288
Zero-half cuts applied:  15
Gomory fractional cuts applied:  20

Root node processing (before b&c):
  Real time             =    0.40 sec. (260.69 ticks)
Sequential b&c:
  Real time             =    0.09 sec. (64.95 ticks)
                          ------------
Total (root+branch&cut) =    0.49 sec. (325.64 ticks)
Solution is feasible.

---------------------
@@@ MIP_optimal
>>> Benchmark flat50-4.cnf k 2 OPT 100 TimeCost 0.5810034275054932 TimeSolve 0.501934289932251 TimeRead 0.0020685195922851562 TimeTrans 0.07700061798095703
